Traveling Salesman Problem/TSP_generados/Aleatorio1620392258_16.tsp
NAME: Aleatorio1620392258_16.tsp
COMMENT: Randomly generated scenario
TYPE: TSP
DIMENSION: 16
EDGE_WEIGHT_TYPE: ATT
NODE_COORD_SECTION
1 31.26 6.16
2 30.0 3.83
3 35.4 36.23
4 37.3 45.43
5 31.41 13.58
6 38.4 16.77
7 13.75 45.65
8 25.09 21.66
9 11.2 24.08
10 13.94 43.0
11 34.42 1.64
12 19.16 11.35
13 27.1 17.92
14 5.21 29.02
15 48.69 42.54
16 39.74 46.37
