Traveling Salesman Problem/TSP_generados/Aleatorio1620392258_16.opt.tour
NAME: Aleatorio1620392258_16.opt.tour
COMMENT: Optimal solution for Aleatorio1620392258_16 (164.60246035243293)
TYPE: TOUR
DIMENSION: 16
TOUR_SECTION
1 5 6 3 15 16 4 7 10 14 9 8 13 12 2 11
-1
EOF
